Traveling Salesman Problem/TSP_generados/Aleatorio1621103389_13.tsp
NAME: Aleatorio1621103389_13.tsp
COMMENT: Randomly generated scenario
TYPE: TSP
DIMENSION: 13
EDGE_WEIGHT_TYPE: ATT
NODE_COORD_SECTION
1 18.86 23.74
2 14.44 19.08
3 49.89 36.13
4 22.53 28.18
5 3.97 29.95
6 23.86 45.46
7 21.91 14.07
8 35.48 36.42
9 26.37 23.21
10 43.23 31.8
11 43.84 9.99
12 4.59 2.51
13 49.48 1.68
