Traveling Salesman Problem/TSP_generados/Aleatorio1621103389_13.opt.tour
NAME: Aleatorio1621103389_13.opt.tour
COMMENT: Optimal solution for Aleatorio1621103389_13 (199.04378699765806)
TYPE: TOUR
DIMENSION: 13
TOUR_SECTION
1 2 7 12 5 6 8 10 3 13 11 9 4
-1
EOF
